56
120
83	2
82	2
81	1
80	3
79	3
78	1
77	2
76	1
75	1
74	1
72	2
71	2
70	1
69	2
68	2
67	2
66	3
65	1
63	4
62	1
60	1
59	2
58	1
56	2
54	1
53	1
52	1
51	1
49	3
47	3
46	1
45	3
44	1
43	2
42	3
39	1
38	2
37	1
36	1
35	1
33	2
32	3
29	4
27	1
26	2
25	2
23	1
21	1
20	1
19	2
18	3
17	1
16	2
14	3
13	2
12	1
